3889
2
87, 176, 34, 194, 92, 172, 138, 114, 203, 216, 208, 46, 150, 70, 56, 59, 182, 47, 86, 88, 146, 72, 190, 202, 41, 186, 68, 3, 32, 123, 41, 141
70, 79, 60, 10, 24, 29, 94, 64, 26, 63, 10, 51, 23, 68, 13, 63, 30, 34, 31, 41, 53, 78, 76, 42, 21, 64, 76, 25, 14, 42, 77, 63
2, 1, 1, 1, 2, 2, 2, 1, 2, 1, 1, 2, 2, 2, 2, 2, 1, 1, 2, 1, 2, 2, 1, 1, 2, 1, 1, 1, 2, 1, 1, 2